DATASET = "thpack2";
INSTANCE = "065";

WIDTH = 233;
HEIGHT = 220;
LENGTH = 587;

NO_OF_SHAPES = 5;
size = [|
  55,50,26 |
  48,42,37 |
  47,34,26 |
  104,74,50 |
  83,70,40 |
|];

verticality = [|
  0,1,1 |
  1,1,1 |
  1,1,1 |
  0,1,1 |
  0,1,1 |
|];

box_count = [
  30,
  41,
  44,
  39,
  33,
];
